28 378 14
0 1 3.00
0 2 1.00
0 3 28.00
0 4 1.00
0 5 28.00
0 6 1.00
0 7 28.00
0 8 1.00
0 9 28.00
0 10 1.00
0 11 28.00
0 12 1.00
0 13 28.00
0 14 1.00
0 15 28.00
0 16 1.00
0 17 28.00
0 18 1.00
0 19 28.00
0 20 1.00
0 21 28.00
0 22 1.00
0 23 28.00
0 24 1.00
0 25 28.00
0 26 1.00
0 27 3.00
1 2 3.00
1 3 28.00
1 4 28.00
1 5 28.00
1 6 28.00
1 7 28.00
1 8 28.00
1 9 28.00
1 10 28.00
1 11 28.00
1 12 28.00
1 13 28.00
1 14 28.00
1 15 28.00
1 16 28.00
1 17 28.00
1 18 28.00
1 19 28.00
1 20 28.00
1 21 28.00
1 22 28.00
1 23 28.00
1 24 28.00
1 25 28.00
1 26 28.00
1 27 28.00
2 3 3.00
2 4 1.00
2 5 28.00
2 6 1.00
2 7 28.00
2 8 1.00
2 9 28.00
2 10 1.00
2 11 28.00
2 12 1.00
2 13 28.00
2 14 1.00
2 15 28.00
2 16 1.00
2 17 28.00
2 18 1.00
2 19 28.00
2 20 1.00
2 21 28.00
2 22 1.00
2 23 28.00
2 24 1.00
2 25 28.00
2 26 1.00
2 27 28.00
3 4 3.00
3 5 28.00
3 6 28.00
3 7 28.00
3 8 28.00
3 9 28.00
3 10 28.00
3 11 28.00
3 12 28.00
3 13 28.00
3 14 28.00
3 15 28.00
3 16 28.00
3 17 28.00
3 18 28.00
3 19 28.00
3 20 28.00
3 21 28.00
3 22 28.00
3 23 28.00
3 24 28.00
3 25 28.00
3 26 28.00
3 27 28.00
4 5 3.00
4 6 1.00
4 7 28.00
4 8 1.00
4 9 28.00
4 10 1.00
4 11 28.00
4 12 1.00
4 13 28.00
4 14 1.00
4 15 28.00
4 16 1.00
4 17 28.00
4 18 1.00
4 19 28.00
4 20 1.00
4 21 28.00
4 22 1.00
4 23 28.00
4 24 1.00
4 25 28.00
4 26 1.00
4 27 28.00
5 6 3.00
5 7 28.00
5 8 28.00
5 9 28.00
5 10 28.00
5 11 28.00
5 12 28.00
5 13 28.00
5 14 28.00
5 15 28.00
5 16 28.00
5 17 28.00
5 18 28.00
5 19 28.00
5 20 28.00
5 21 28.00
5 22 28.00
5 23 28.00
5 24 28.00
5 25 28.00
5 26 28.00
5 27 28.00
6 7 3.00
6 8 1.00
6 9 28.00
6 10 1.00
6 11 28.00
6 12 1.00
6 13 28.00
6 14 1.00
6 15 28.00
6 16 1.00
6 17 28.00
6 18 1.00
6 19 28.00
6 20 1.00
6 21 28.00
6 22 1.00
6 23 28.00
6 24 1.00
6 25 28.00
6 26 1.00
6 27 28.00
7 8 3.00
7 9 28.00
7 10 28.00
7 11 28.00
7 12 28.00
7 13 28.00
7 14 28.00
7 15 28.00
7 16 28.00
7 17 28.00
7 18 28.00
7 19 28.00
7 20 28.00
7 21 28.00
7 22 28.00
7 23 28.00
7 24 28.00
7 25 28.00
7 26 28.00
7 27 28.00
8 9 3.00
8 10 1.00
8 11 28.00
8 12 1.00
8 13 28.00
8 14 1.00
8 15 28.00
8 16 1.00
8 17 28.00
8 18 1.00
8 19 28.00
8 20 1.00
8 21 28.00
8 22 1.00
8 23 28.00
8 24 1.00
8 25 28.00
8 26 1.00
8 27 28.00
9 10 3.00
9 11 28.00
9 12 28.00
9 13 28.00
9 14 28.00
9 15 28.00
9 16 28.00
9 17 28.00
9 18 28.00
9 19 28.00
9 20 28.00
9 21 28.00
9 22 28.00
9 23 28.00
9 24 28.00
9 25 28.00
9 26 28.00
9 27 28.00
10 11 3.00
10 12 1.00
10 13 28.00
10 14 1.00
10 15 28.00
10 16 1.00
10 17 28.00
10 18 1.00
10 19 28.00
10 20 1.00
10 21 28.00
10 22 1.00
10 23 28.00
10 24 1.00
10 25 28.00
10 26 1.00
10 27 28.00
11 12 3.00
11 13 28.00
11 14 28.00
11 15 28.00
11 16 28.00
11 17 28.00
11 18 28.00
11 19 28.00
11 20 28.00
11 21 28.00
11 22 28.00
11 23 28.00
11 24 28.00
11 25 28.00
11 26 28.00
11 27 28.00
12 13 3.00
12 14 1.00
12 15 28.00
12 16 1.00
12 17 28.00
12 18 1.00
12 19 28.00
12 20 1.00
12 21 28.00
12 22 1.00
12 23 28.00
12 24 1.00
12 25 28.00
12 26 1.00
12 27 28.00
13 14 3.00
13 15 28.00
13 16 28.00
13 17 28.00
13 18 28.00
13 19 28.00
13 20 28.00
13 21 28.00
13 22 28.00
13 23 28.00
13 24 28.00
13 25 28.00
13 26 28.00
13 27 28.00
14 15 3.00
14 16 1.00
14 17 28.00
14 18 1.00
14 19 28.00
14 20 1.00
14 21 28.00
14 22 1.00
14 23 28.00
14 24 1.00
14 25 28.00
14 26 1.00
14 27 28.00
15 16 3.00
15 17 28.00
15 18 28.00
15 19 28.00
15 20 28.00
15 21 28.00
15 22 28.00
15 23 28.00
15 24 28.00
15 25 28.00
15 26 28.00
15 27 28.00
16 17 3.00
16 18 1.00
16 19 28.00
16 20 1.00
16 21 28.00
16 22 1.00
16 23 28.00
16 24 1.00
16 25 28.00
16 26 1.00
16 27 28.00
17 18 3.00
17 19 28.00
17 20 28.00
17 21 28.00
17 22 28.00
17 23 28.00
17 24 28.00
17 25 28.00
17 26 28.00
17 27 28.00
18 19 3.00
18 20 1.00
18 21 28.00
18 22 1.00
18 23 28.00
18 24 1.00
18 25 28.00
18 26 1.00
18 27 28.00
19 20 3.00
19 21 28.00
19 22 28.00
19 23 28.00
19 24 28.00
19 25 28.00
19 26 28.00
19 27 28.00
20 21 3.00
20 22 1.00
20 23 28.00
20 24 1.00
20 25 28.00
20 26 1.00
20 27 28.00
21 22 3.00
21 23 28.00
21 24 28.00
21 25 28.00
21 26 28.00
21 27 28.00
22 23 3.00
22 24 1.00
22 25 28.00
22 26 1.00
22 27 28.00
23 24 3.00
23 25 28.00
23 26 28.00
23 27 28.00
24 25 3.00
24 26 1.00
24 27 28.00
25 26 3.00
25 27 28.00
26 27 3.00
0
2
4
6
8
10
12
14
16
18
20
22
24
26
